p cnf 313 1168
1 2 3 4 5 0
1 6 11 0
-1 16 0
-16 17 0
-2 -16 18 0
-18 19 0
-3 -18 20 0
-20 21 0
-4 -20 22 0
-22 23 0
-5 -22 24 0
-24 25 0
-6 -24 26 0
-26 27 0
-7 -26 28 0
-28 29 0
-8 -28 30 0
-30 31 0
-9 -30 0
-2 17 0
-17 32 0
-3 -17 19 0
-19 33 0
-4 -19 21 0
-21 34 0
-5 -21 23 0
-23 35 0
-6 -23 25 0
-25 36 0
-7 -25 27 0
-27 37 0
-8 -27 29 0
-29 38 0
-9 -29 31 0
-31 39 0
-10 -31 0
-3 32 0
-32 40 0
-4 -32 33 0
-33 41 0
-5 -33 34 0
-34 42 0
-6 -34 35 0
-35 43 0
-7 -35 36 0
-36 44 0
-8 -36 37 0
-37 45 0
-9 -37 38 0
-38 46 0
-10 -38 39 0
-39 47 0
-11 -39 0
-4 40 0
-40 48 0
-5 -40 41 0
-41 49 0
-6 -41 42 0
-42 50 0
-7 -42 43 0
-43 51 0
-8 -43 44 0
-44 52 0
-9 -44 45 0
-45 53 0
-10 -45 46 0
-46 54 0
-11 -46 47 0
-47 55 0
-12 -47 0
-5 48 0
-48 56 0
-6 -48 49 0
-49 57 0
-7 -49 50 0
-50 58 0
-8 -50 51 0
-51 59 0
-9 -51 52 0
-52 60 0
-10 -52 53 0
-53 61 0
-11 -53 54 0
-54 62 0
-12 -54 55 0
-55 63 0
-13 -55 0
-6 56 0
-56 64 0
-7 -56 57 0
-57 65 0
-8 -57 58 0
-58 66 0
-9 -58 59 0
-59 67 0
-10 -59 60 0
-60 68 0
-11 -60 61 0
-61 69 0
-12 -61 62 0
-62 70 0
-13 -62 63 0
-63 71 0
-14 -63 0
-7 64 0
-8 -64 65 0
-9 -65 66 0
-10 -66 67 0
-11 -67 68 0
-12 -68 69 0
-13 -69 70 0
-14 -70 71 0
-15 -71 0
1 72 0
-72 73 0
2 -72 74 0
-74 75 0
3 -74 76 0
-76 77 0
4 -76 78 0
-78 79 0
5 -78 80 0
-80 81 0
6 -80 82 0
-82 83 0
7 -82 84 0
-84 85 0
8 -84 0
2 73 0
-73 86 0
3 -73 75 0
-75 87 0
4 -75 77 0
-77 88 0
5 -77 79 0
-79 89 0
6 -79 81 0
-81 90 0
7 -81 83 0
-83 91 0
8 -83 85 0
-85 92 0
9 -85 0
3 86 0
-86 93 0
4 -86 87 0
-87 94 0
5 -87 88 0
-88 95 0
6 -88 89 0
-89 96 0
7 -89 90 0
-90 97 0
8 -90 91 0
-91 98 0
9 -91 92 0
-92 99 0
10 -92 0
4 93 0
-93 100 0
5 -93 94 0
-94 101 0
6 -94 95 0
-95 102 0
7 -95 96 0
-96 103 0
8 -96 97 0
-97 104 0
9 -97 98 0
-98 105 0
10 -98 99 0
-99 106 0
11 -99 0
5 100 0
-100 107 0
6 -100 101 0
-101 108 0
7 -101 102 0
-102 109 0
8 -102 103 0
-103 110 0
9 -103 104 0
-104 111 0
10 -104 105 0
-105 112 0
11 -105 106 0
-106 113 0
12 -106 0
6 107 0
-107 114 0
7 -107 108 0
-108 115 0
8 -108 109 0
-109 116 0
9 -109 110 0
-110 117 0
10 -110 111 0
-111 118 0
11 -111 112 0
-112 119 0
12 -112 113 0
-113 120 0
13 -113 0
7 114 0
-114 121 0
8 -114 115 0
-115 122 0
9 -115 116 0
-116 123 0
10 -116 117 0
-117 124 0
11 -117 118 0
-118 125 0
12 -118 119 0
-119 126 0
13 -119 120 0
-120 127 0
14 -120 0
8 121 0
9 -121 122 0
10 -122 123 0
11 -123 124 0
12 -124 125 0
13 -125 126 0
14 -126 127 0
15 -127 0
-128 2 0
-128 6 0
-128 7 0
-128 8 0
-128 12 0
-129 3 0
-129 7 0
-129 8 0
-129 9 0
-129 13 0
-130 4 0
-130 8 0
-130 9 0
-130 10 0
-130 14 0
128 129 130 0
-131 1 0
-131 2 0
-131 3 0
-131 4 0
-131 5 0
-132 6 0
-132 7 0
-132 8 0
-132 9 0
-132 10 0
-133 11 0
-133 12 0
-133 13 0
-133 14 0
-133 15 0
131 132 133 0
-134 1 0
-134 2 0
-134 3 0
-134 7 0
-134 12 0
-135 2 0
-135 3 0
-135 4 0
-135 8 0
-135 13 0
-136 3 0
-136 4 0
-136 5 0
-136 9 0
-136 14 0
-137 3 0
-137 6 0
-137 7 0
-137 8 0
-137 13 0
-138 4 0
-138 7 0
-138 8 0
-138 9 0
-138 14 0
-139 5 0
-139 8 0
-139 9 0
-139 10 0
-139 15 0
-140 2 0
-140 7 0
-140 11 0
-140 12 0
-140 13 0
-141 3 0
-141 8 0
-141 12 0
-141 13 0
-141 14 0
-142 4 0
-142 9 0
-142 13 0
-142 14 0
-142 15 0
-143 1 0
-143 6 0
-143 7 0
-143 8 0
-143 11 0
-144 2 0
-144 7 0
-144 8 0
-144 9 0
-144 12 0
-145 3 0
-145 8 0
-145 9 0
-145 10 0
-145 13 0
134 135 136 137 138 139 140 141 142 143 144 145 0
-146 1 0
-146 2 0
-146 7 0
-146 12 0
-146 13 0
-147 2 0
-147 3 0
-147 8 0
-147 13 0
-147 14 0
-148 3 0
-148 4 0
-148 9 0
-148 14 0
-148 15 0
-149 3 0
-149 6 0
-149 7 0
-149 8 0
-149 11 0
-150 4 0
-150 7 0
-150 8 0
-150 9 0
-150 12 0
-151 5 0
-151 8 0
-151 9 0
-151 10 0
-151 13 0
-152 2 0
-152 3 0
-152 7 0
-152 11 0
-152 12 0
-153 3 0
-153 4 0
-153 8 0
-153 12 0
-153 13 0
-154 4 0
-154 5 0
-154 9 0
-154 13 0
-154 14 0
-155 1 0
-155 6 0
-155 7 0
-155 8 0
-155 13 0
-156 2 0
-156 7 0
-156 8 0
-156 9 0
-156 14 0
-157 3 0
-157 8 0
-157 9 0
-157 10 0
-157 15 0
146 147 148 149 150 151 152 153 154 155 156 157 0
-158 1 0
-158 2 0
-158 3 0
-158 6 0
-158 11 0
-159 2 0
-159 3 0
-159 4 0
-159 7 0
-159 12 0
-160 3 0
-160 4 0
-160 5 0
-160 8 0
-160 13 0
-161 1 0
-161 2 0
-161 3 0
-161 8 0
-161 13 0
-162 2 0
-162 3 0
-162 4 0
-162 9 0
-162 14 0
-163 3 0
-163 4 0
-163 5 0
-163 10 0
-163 15 0
-164 3 0
-164 8 0
-164 11 0
-164 12 0
-164 13 0
-165 4 0
-165 9 0
-165 12 0
-165 13 0
-165 14 0
-166 5 0
-166 10 0
-166 13 0
-166 14 0
-166 15 0
-167 1 0
-167 6 0
-167 11 0
-167 12 0
-167 13 0
-168 2 0
-168 7 0
-168 12 0
-168 13 0
-168 14 0
-169 3 0
-169 8 0
-169 13 0
-169 14 0
-169 15 0
158 159 160 161 162 163 164 165 166 167 168 169 0
-170 1 0
-170 2 0
-170 7 0
-170 8 0
-170 13 0
-171 2 0
-171 3 0
-171 8 0
-171 9 0
-171 14 0
-172 3 0
-172 4 0
-172 9 0
-172 10 0
-172 15 0
-173 3 0
-173 7 0
-173 8 0
-173 11 0
-173 12 0
-174 4 0
-174 8 0
-174 9 0
-174 12 0
-174 13 0
-175 5 0
-175 9 0
-175 10 0
-175 13 0
-175 14 0
-176 1 0
-176 6 0
-176 7 0
-176 12 0
-176 13 0
-177 2 0
-177 7 0
-177 8 0
-177 13 0
-177 14 0
-178 3 0
-178 8 0
-178 9 0
-178 14 0
-178 15 0
-179 2 0
-179 3 0
-179 6 0
-179 7 0
-179 11 0
-180 3 0
-180 4 0
-180 7 0
-180 8 0
-180 12 0
-181 4 0
-181 5 0
-181 8 0
-181 9 0
-181 13 0
170 171 172 173 174 175 176 177 178 179 180 181 0
-182 1 0
-182 2 0
-182 3 0
-182 8 0
-182 9 0
-183 2 0
-183 3 0
-183 4 0
-183 9 0
-183 10 0
-184 6 0
-184 7 0
-184 8 0
-184 13 0
-184 14 0
-185 7 0
-185 8 0
-185 9 0
-185 14 0
-185 15 0
-186 1 0
-186 2 0
-186 7 0
-186 8 0
-186 9 0
-187 2 0
-187 3 0
-187 8 0
-187 9 0
-187 10 0
-188 6 0
-188 7 0
-188 12 0
-188 13 0
-188 14 0
-189 7 0
-189 8 0
-189 13 0
-189 14 0
-189 15 0
-190 2 0
-190 3 0
-190 4 0
-190 6 0
-190 7 0
-191 3 0
-191 4 0
-191 5 0
-191 7 0
-191 8 0
-192 7 0
-192 8 0
-192 9 0
-192 11 0
-192 12 0
-193 8 0
-193 9 0
-193 10 0
-193 12 0
-193 13 0
-194 3 0
-194 4 0
-194 6 0
-194 7 0
-194 8 0
-195 4 0
-195 5 0
-195 7 0
-195 8 0
-195 9 0
-196 8 0
-196 9 0
-196 11 0
-196 12 0
-196 13 0
-197 9 0
-197 10 0
-197 12 0
-197 13 0
-197 14 0
182 183 184 185 186 187 188 189 190 191 192 193 194 195 196 197 0
-198 1 0
-198 2 0
-198 3 0
-198 4 0
-198 7 0
-199 2 0
-199 3 0
-199 4 0
-199 5 0
-199 8 0
-200 6 0
-200 7 0
-200 8 0
-200 9 0
-200 12 0
-201 7 0
-201 8 0
-201 9 0
-201 10 0
-201 13 0
-202 3 0
-202 6 0
-202 7 0
-202 8 0
-202 9 0
-203 4 0
-203 7 0
-203 8 0
-203 9 0
-203 10 0
-204 8 0
-204 11 0
-204 12 0
-204 13 0
-204 14 0
-205 9 0
-205 12 0
-205 13 0
-205 14 0
-205 15 0
-206 1 0
-206 2 0
-206 3 0
-206 4 0
-206 8 0
-207 2 0
-207 3 0
-207 4 0
-207 5 0
-207 9 0
-208 6 0
-208 7 0
-208 8 0
-208 9 0
-208 13 0
-209 7 0
-209 8 0
-209 9 0
-209 10 0
-209 14 0
-210 2 0
-210 6 0
-210 7 0
-210 8 0
-210 9 0
-211 3 0
-211 7 0
-211 8 0
-211 9 0
-211 10 0
-212 7 0
-212 11 0
-212 12 0
-212 13 0
-212 14 0
-213 8 0
-213 12 0
-213 13 0
-213 14 0
-213 15 0
198 199 200 201 202 203 204 205 206 207 208 209 210 211 212 213 0
-214 1 0
-214 2 0
-214 3 0
-214 4 0
-214 6 0
-215 2 0
-215 3 0
-215 4 0
-215 5 0
-215 7 0
-216 6 0
-216 7 0
-216 8 0
-216 9 0
-216 11 0
-217 7 0
-217 8 0
-217 9 0
-217 10 0
-217 12 0
-218 4 0
-218 6 0
-218 7 0
-218 8 0
-218 9 0
-219 5 0
-219 7 0
-219 8 0
-219 9 0
-219 10 0
-220 9 0
-220 11 0
-220 12 0
-220 13 0
-220 14 0
-221 10 0
-221 12 0
-221 13 0
-221 14 0
-221 15 0
-222 1 0
-222 2 0
-222 3 0
-222 4 0
-222 9 0
-223 2 0
-223 3 0
-223 4 0
-223 5 0
-223 10 0
-224 6 0
-224 7 0
-224 8 0
-224 9 0
-224 14 0
-225 7 0
-225 8 0
-225 9 0
-225 10 0
-225 15 0
-226 1 0
-226 6 0
-226 7 0
-226 8 0
-226 9 0
-227 2 0
-227 7 0
-227 8 0
-227 9 0
-227 10 0
-228 6 0
-228 11 0
-228 12 0
-228 13 0
-228 14 0
-229 7 0
-229 12 0
-229 13 0
-229 14 0
-229 15 0
214 215 216 217 218 219 220 221 222 223 224 225 226 227 228 229 0
-230 1 0
-230 2 0
-230 3 0
-230 6 0
-230 8 0
-231 2 0
-231 3 0
-231 4 0
-231 7 0
-231 9 0
-232 3 0
-232 4 0
-232 5 0
-232 8 0
-232 10 0
-233 6 0
-233 7 0
-233 8 0
-233 11 0
-233 13 0
-234 7 0
-234 8 0
-234 9 0
-234 12 0
-234 14 0
-235 8 0
-235 9 0
-235 10 0
-235 13 0
-235 15 0
-236 1 0
-236 2 0
-236 7 0
-236 11 0
-236 12 0
-237 2 0
-237 3 0
-237 8 0
-237 12 0
-237 13 0
-238 3 0
-238 4 0
-238 9 0
-238 13 0
-238 14 0
-239 4 0
-239 5 0
-239 10 0
-239 14 0
-239 15 0
-240 1 0
-240 3 0
-240 6 0
-240 7 0
-240 8 0
-241 2 0
-241 4 0
-241 7 0
-241 8 0
-241 9 0
-242 3 0
-242 5 0
-242 8 0
-242 9 0
-242 10 0
-243 6 0
-243 8 0
-243 11 0
-243 12 0
-243 13 0
-244 7 0
-244 9 0
-244 12 0
-244 13 0
-244 14 0
-245 8 0
-245 10 0
-245 13 0
-245 14 0
-245 15 0
-246 1 0
-246 2 0
-246 6 0
-246 11 0
-246 12 0
-247 2 0
-247 3 0
-247 7 0
-247 12 0
-247 13 0
-248 3 0
-248 4 0
-248 8 0
-248 13 0
-248 14 0
-249 4 0
-249 5 0
-249 9 0
-249 14 0
-249 15 0
230 231 232 233 234 235 236 237 238 239 240 241 242 243 244 245 246 247 248 249 0
-250 1 0
-250 2 0
-250 7 0
-250 8 0
-250 12 0
-251 2 0
-251 3 0
-251 8 0
-251 9 0
-251 13 0
-252 3 0
-252 4 0
-252 9 0
-252 10 0
-252 14 0
-253 3 0
-253 6 0
-253 7 0
-253 8 0
-253 12 0
-254 4 0
-254 7 0
-254 8 0
-254 9 0
-254 13 0
-255 5 0
-255 8 0
-255 9 0
-255 10 0
-255 14 0
-256 2 0
-256 6 0
-256 7 0
-256 12 0
-256 13 0
-257 3 0
-257 7 0
-257 8 0
-257 13 0
-257 14 0
-258 4 0
-258 8 0
-258 9 0
-258 14 0
-258 15 0
-259 2 0
-259 6 0
-259 7 0
-259 8 0
-259 11 0
-260 3 0
-260 7 0
-260 8 0
-260 9 0
-260 12 0
-261 4 0
-261 8 0
-261 9 0
-261 10 0
-261 13 0
-262 2 0
-262 3 0
-262 6 0
-262 7 0
-262 12 0
-263 3 0
-263 4 0
-263 7 0
-263 8 0
-263 13 0
-264 4 0
-264 5 0
-264 8 0
-264 9 0
-264 14 0
-265 1 0
-265 6 0
-265 7 0
-265 8 0
-265 12 0
-266 2 0
-266 7 0
-266 8 0
-266 9 0
-266 13 0
-267 3 0
-267 8 0
-267 9 0
-267 10 0
-267 14 0
-268 2 0
-268 7 0
-268 8 0
-268 11 0
-268 12 0
-269 3 0
-269 8 0
-269 9 0
-269 12 0
-269 13 0
-270 4 0
-270 9 0
-270 10 0
-270 13 0
-270 14 0
-271 2 0
-271 6 0
-271 7 0
-271 8 0
-271 13 0
-272 3 0
-272 7 0
-272 8 0
-272 9 0
-272 14 0
-273 4 0
-273 8 0
-273 9 0
-273 10 0
-273 15 0
250 251 252 253 254 255 256 257 258 259 260 261 262 263 264 265 266 267 268 269 270 271 272 273 0
-274 1 0
-274 2 0
-274 3 0
-274 6 0
-274 7 0
-275 2 0
-275 3 0
-275 4 0
-275 7 0
-275 8 0
-276 3 0
-276 4 0
-276 5 0
-276 8 0
-276 9 0
-277 6 0
-277 7 0
-277 8 0
-277 11 0
-277 12 0
-278 7 0
-278 8 0
-278 9 0
-278 12 0
-278 13 0
-279 8 0
-279 9 0
-279 10 0
-279 13 0
-279 14 0
-280 1 0
-280 2 0
-280 6 0
-280 7 0
-280 12 0
-281 2 0
-281 3 0
-281 7 0
-281 8 0
-281 13 0
-282 3 0
-282 4 0
-282 8 0
-282 9 0
-282 14 0
-283 4 0
-283 5 0
-283 9 0
-283 10 0
-283 15 0
-284 2 0
-284 3 0
-284 6 0
-284 7 0
-284 8 0
-285 3 0
-285 4 0
-285 7 0
-285 8 0
-285 9 0
-286 4 0
-286 5 0
-286 8 0
-286 9 0
-286 10 0
-287 7 0
-287 8 0
-287 11 0
-287 12 0
-287 13 0
-288 8 0
-288 9 0
-288 12 0
-288 13 0
-288 14 0
-289 9 0
-289 10 0
-289 13 0
-289 14 0
-289 15 0
-290 1 0
-290 6 0
-290 7 0
-290 11 0
-290 12 0
-291 2 0
-291 7 0
-291 8 0
-291 12 0
-291 13 0
-292 3 0
-292 8 0
-292 9 0
-292 13 0
-292 14 0
-293 4 0
-293 9 0
-293 10 0
-293 14 0
-293 15 0
-294 1 0
-294 2 0
-294 3 0
-294 7 0
-294 8 0
-295 2 0
-295 3 0
-295 4 0
-295 8 0
-295 9 0
-296 3 0
-296 4 0
-296 5 0
-296 9 0
-296 10 0
-297 6 0
-297 7 0
-297 8 0
-297 12 0
-297 13 0
-298 7 0
-298 8 0
-298 9 0
-298 13 0
-298 14 0
-299 8 0
-299 9 0
-299 10 0
-299 14 0
-299 15 0
-300 1 0
-300 2 0
-300 6 0
-300 7 0
-300 11 0
-301 2 0
-301 3 0
-301 7 0
-301 8 0
-301 12 0
-302 3 0
-302 4 0
-302 8 0
-302 9 0
-302 13 0
-303 4 0
-303 5 0
-303 9 0
-303 10 0
-303 14 0
-304 1 0
-304 2 0
-304 6 0
-304 7 0
-304 8 0
-305 2 0
-305 3 0
-305 7 0
-305 8 0
-305 9 0
-306 3 0
-306 4 0
-306 8 0
-306 9 0
-306 10 0
-307 6 0
-307 7 0
-307 11 0
-307 12 0
-307 13 0
-308 7 0
-308 8 0
-308 12 0
-308 13 0
-308 14 0
-309 8 0
-309 9 0
-309 13 0
-309 14 0
-309 15 0
-310 2 0
-310 6 0
-310 7 0
-310 11 0
-310 12 0
-311 3 0
-311 7 0
-311 8 0
-311 12 0
-311 13 0
-312 4 0
-312 8 0
-312 9 0
-312 13 0
-312 14 0
-313 5 0
-313 9 0
-313 10 0
-313 14 0
-313 15 0
274 275 276 277 278 279 280 281 282 283 284 285 286 287 288 289 290 291 292 293 294 295 296 297 298 299 300 301 302 303 304 305 306 307 308 309 310 311 312 313 0
